c User generated cnf file
p cnf 6 29
1 -3 2 0 
-6 2 5 0 
6 -3 4 0 
-3 1 5 0 
5 4 -2 0 
-3 3 4 0 
-5 2 4 0 
6 2 -5 0 
-5 1 1 0 
6 -1 1 0 
4 1 -5 0 
1 1 -6 0 
3 1 -4 0 
-1 3 6 0 
6 -5 5 0 
4 -2 1 0 
-2 1 5 0 
5 -1 4 0 
6 -5 5 0 
6 2 -1 0 
-4 2 6 0 
3 2 -2 0 
-5 1 3 0 
6 -5 2 0 
6 6 -5 0 
-2 1 2 0 
2 5 -5 0 
3 3 -5 0 
3 -6 3 0 
